
&GLOBAL
&END GLOBAL
&FORCE_EVAL
    METHOD Quickstep
    &DFT
       BASIS_SET_FILE_NAME BASIS_MOLOPT
       POTENTIAL_FILE_NAME GTH_POTENTIALS
       &XC
          &XC_FUNCTIONAL PBE
          &END XC_FUNCTIONAL
       &END XC
       &PRINT
          &MO_CUBES
             NHOMO 5
             NLUMO 5
          &END MO_CUBES
       &END PRINT
    &END DFT
    &SUBSYS
       &CELL
          ABC 5.0 5.0 5.0
       &END CELL
       &TOPOLOGY
          COORD_FILE_NAME coords.xyz
          COORD_FILE_FORMAT XYZ
       &END TOPOLOGY
       &KIND C
          BASIS_SET DZVP-MOLOPT-GTH
          POTENTIAL GTH-PBE
       &END KIND
       &KIND H
          BASIS_SET DZVP-MOLOPT-GTH
          POTENTIAL GTH-PBE
       &END KIND
       &KIND O
          BASIS_SET DZVP-MOLOPT-GTH
          POTENTIAL GTH-PBE
       &END KIND
    &END SUBSYS
&END FORCE_EVAL
